% demand
num_movements = 21;
loading_factor = [1750, 850, 1900, 1650, 1050, 1800, 1850, 1550, 1800, 1400, 1650, 1050, 1350, 1500, 1300, 1400, 1800, 1750, 1950, 1750, 1950];
pickup_time = [0, 0, 0, 0, 0, 0, 0, 1, 3, 3, 3, 3, 4, 4, 4, 5, 5, 6, 7, 7, 7];
delivery_time = [1, 2, 4, 4, 3, 1, 1, 6, 4, 7, 9, 4, 9, 7, 5, 7, 9, 7, 9, 9, 9];

% transporter definition
total_capacity = 11000;
num_decks = 4;
capacity = [3000, 3000, 1000, 4000];

% ways out of decks
num_ways_out = 2;
paths_out = array3d(decks, ways_out, decks, [
% ways out of deck d1
2, 4, 0, 0, 3, 4, 0, 0, 

% ways out of deck d2
4, 0, 0, 0, 0, 0, 0, 0,	

% ways out of deck d3
4, 0, 0, 0, 0, 0, 0, 0,	

% ways out of deck d4
0, 0, 0, 0,	0, 0, 0, 0,	

]);

